p cnf 297 432
53 54 1 82 0
53 54 1 -82 0
-53 -54 1 83 0
-53 -54 1 -83 0
53 -54 -1 84 0
53 -54 -1 -84 0
-53 54 -1 85 0
-53 54 -1 -85 0
1 55 2 86 0
1 55 2 -86 0
-1 -55 2 87 0
-1 -55 2 -87 0
1 -55 -2 88 0
1 -55 -2 -88 0
-1 55 -2 89 0
-1 55 -2 -89 0
2 56 3 90 0
2 56 3 -90 0
-2 -56 3 91 0
-2 -56 3 -91 0
2 -56 -3 92 0
2 -56 -3 -92 0
-2 56 -3 93 0
-2 56 -3 -93 0
3 57 4 94 0
3 57 4 -94 0
-3 -57 4 95 0
-3 -57 4 -95 0
3 -57 -4 96 0
3 -57 -4 -96 0
-3 57 -4 97 0
-3 57 -4 -97 0
4 58 5 98 0
4 58 5 -98 0
-4 -58 5 99 0
-4 -58 5 -99 0
4 -58 -5 100 0
4 -58 -5 -100 0
-4 58 -5 101 0
-4 58 -5 -101 0
5 59 6 102 0
5 59 6 -102 0
-5 -59 6 103 0
-5 -59 6 -103 0
5 -59 -6 104 0
5 -59 -6 -104 0
-5 59 -6 105 0
-5 59 -6 -105 0
6 60 7 106 0
6 60 7 -106 0
-6 -60 7 107 0
-6 -60 7 -107 0
6 -60 -7 108 0
6 -60 -7 -108 0
-6 60 -7 109 0
-6 60 -7 -109 0
7 61 8 110 0
7 61 8 -110 0
-7 -61 8 111 0
-7 -61 8 -111 0
7 -61 -8 112 0
7 -61 -8 -112 0
-7 61 -8 113 0
-7 61 -8 -113 0
8 62 9 114 0
8 62 9 -114 0
-8 -62 9 115 0
-8 -62 9 -115 0
8 -62 -9 116 0
8 -62 -9 -116 0
-8 62 -9 117 0
-8 62 -9 -117 0
9 63 10 118 0
9 63 10 -118 0
-9 -63 10 119 0
-9 -63 10 -119 0
9 -63 -10 120 0
9 -63 -10 -120 0
-9 63 -10 121 0
-9 63 -10 -121 0
10 64 11 122 0
10 64 11 -122 0
-10 -64 11 123 0
-10 -64 11 -123 0
10 -64 -11 124 0
10 -64 -11 -124 0
-10 64 -11 125 0
-10 64 -11 -125 0
11 65 12 126 0
11 65 12 -126 0
-11 -65 12 127 0
-11 -65 12 -127 0
11 -65 -12 128 0
11 -65 -12 -128 0
-11 65 -12 129 0
-11 65 -12 -129 0
12 66 13 130 0
12 66 13 -130 0
-12 -66 13 131 0
-12 -66 13 -131 0
12 -66 -13 132 0
12 -66 -13 -132 0
-12 66 -13 133 0
-12 66 -13 -133 0
13 67 14 134 0
13 67 14 -134 0
-13 -67 14 135 0
-13 -67 14 -135 0
13 -67 -14 136 0
13 -67 -14 -136 0
-13 67 -14 137 0
-13 67 -14 -137 0
14 68 15 138 0
14 68 15 -138 0
-14 -68 15 139 0
-14 -68 15 -139 0
14 -68 -15 140 0
14 -68 -15 -140 0
-14 68 -15 141 0
-14 68 -15 -141 0
15 69 16 142 0
15 69 16 -142 0
-15 -69 16 143 0
-15 -69 16 -143 0
15 -69 -16 144 0
15 -69 -16 -144 0
-15 69 -16 145 0
-15 69 -16 -145 0
16 70 17 146 0
16 70 17 -146 0
-16 -70 17 147 0
-16 -70 17 -147 0
16 -70 -17 148 0
16 -70 -17 -148 0
-16 70 -17 149 0
-16 70 -17 -149 0
17 71 18 150 0
17 71 18 -150 0
-17 -71 18 151 0
-17 -71 18 -151 0
17 -71 -18 152 0
17 -71 -18 -152 0
-17 71 -18 153 0
-17 71 -18 -153 0
18 72 19 154 0
18 72 19 -154 0
-18 -72 19 155 0
-18 -72 19 -155 0
18 -72 -19 156 0
18 -72 -19 -156 0
-18 72 -19 157 0
-18 72 -19 -157 0
19 73 20 158 0
19 73 20 -158 0
-19 -73 20 159 0
-19 -73 20 -159 0
19 -73 -20 160 0
19 -73 -20 -160 0
-19 73 -20 161 0
-19 73 -20 -161 0
20 74 21 162 0
20 74 21 -162 0
-20 -74 21 163 0
-20 -74 21 -163 0
20 -74 -21 164 0
20 -74 -21 -164 0
-20 74 -21 165 0
-20 74 -21 -165 0
21 75 22 166 0
21 75 22 -166 0
-21 -75 22 167 0
-21 -75 22 -167 0
21 -75 -22 168 0
21 -75 -22 -168 0
-21 75 -22 169 0
-21 75 -22 -169 0
22 76 23 170 0
22 76 23 -170 0
-22 -76 23 171 0
-22 -76 23 -171 0
22 -76 -23 172 0
22 -76 -23 -172 0
-22 76 -23 173 0
-22 76 -23 -173 0
23 77 24 174 0
23 77 24 -174 0
-23 -77 24 175 0
-23 -77 24 -175 0
23 -77 -24 176 0
23 -77 -24 -176 0
-23 77 -24 177 0
-23 77 -24 -177 0
24 78 25 178 0
24 78 25 -178 0
-24 -78 25 179 0
-24 -78 25 -179 0
24 -78 -25 180 0
24 -78 -25 -180 0
-24 78 -25 181 0
-24 78 -25 -181 0
25 79 26 182 0
25 79 26 -182 0
-25 -79 26 183 0
-25 -79 26 -183 0
25 -79 -26 184 0
25 -79 -26 -184 0
-25 79 -26 185 0
-25 79 -26 -185 0
26 80 81 186 0
26 80 81 -186 0
-26 -80 81 187 0
-26 -80 81 -187 0
26 -80 -81 188 0
26 -80 -81 -188 0
-26 80 -81 189 0
-26 80 -81 -189 0
27 80 81 190 0
27 80 81 -190 0
-27 -80 81 191 0
-27 -80 81 -191 0
27 -80 -81 192 0
27 -80 -81 -192 0
-27 80 -81 193 0
-27 80 -81 -193 0
28 79 27 194 0
28 79 27 -194 0
-28 -79 27 195 0
-28 -79 27 -195 0
28 -79 -27 196 0
28 -79 -27 -196 0
-28 79 -27 197 0
-28 79 -27 -197 0
29 78 28 198 0
29 78 28 -198 0
-29 -78 28 199 0
-29 -78 28 -199 0
29 -78 -28 200 0
29 -78 -28 -200 0
-29 78 -28 201 0
-29 78 -28 -201 0
30 77 29 202 0
30 77 29 -202 0
-30 -77 29 203 0
-30 -77 29 -203 0
30 -77 -29 204 0
30 -77 -29 -204 0
-30 77 -29 205 0
-30 77 -29 -205 0
31 76 30 206 0
31 76 30 -206 0
-31 -76 30 207 0
-31 -76 30 -207 0
31 -76 -30 208 0
31 -76 -30 -208 0
-31 76 -30 209 0
-31 76 -30 -209 0
32 75 31 210 0
32 75 31 -210 0
-32 -75 31 211 0
-32 -75 31 -211 0
32 -75 -31 212 0
32 -75 -31 -212 0
-32 75 -31 213 0
-32 75 -31 -213 0
33 74 32 214 0
33 74 32 -214 0
-33 -74 32 215 0
-33 -74 32 -215 0
33 -74 -32 216 0
33 -74 -32 -216 0
-33 74 -32 217 0
-33 74 -32 -217 0
34 73 33 218 0
34 73 33 -218 0
-34 -73 33 219 0
-34 -73 33 -219 0
34 -73 -33 220 0
34 -73 -33 -220 0
-34 73 -33 221 0
-34 73 -33 -221 0
35 72 34 222 0
35 72 34 -222 0
-35 -72 34 223 0
-35 -72 34 -223 0
35 -72 -34 224 0
35 -72 -34 -224 0
-35 72 -34 225 0
-35 72 -34 -225 0
36 71 35 226 0
36 71 35 -226 0
-36 -71 35 227 0
-36 -71 35 -227 0
36 -71 -35 228 0
36 -71 -35 -228 0
-36 71 -35 229 0
-36 71 -35 -229 0
37 70 36 230 0
37 70 36 -230 0
-37 -70 36 231 0
-37 -70 36 -231 0
37 -70 -36 232 0
37 -70 -36 -232 0
-37 70 -36 233 0
-37 70 -36 -233 0
38 69 37 234 0
38 69 37 -234 0
-38 -69 37 235 0
-38 -69 37 -235 0
38 -69 -37 236 0
38 -69 -37 -236 0
-38 69 -37 237 0
-38 69 -37 -237 0
39 68 38 238 0
39 68 38 -238 0
-39 -68 38 239 0
-39 -68 38 -239 0
39 -68 -38 240 0
39 -68 -38 -240 0
-39 68 -38 241 0
-39 68 -38 -241 0
40 67 39 242 0
40 67 39 -242 0
-40 -67 39 243 0
-40 -67 39 -243 0
40 -67 -39 244 0
40 -67 -39 -244 0
-40 67 -39 245 0
-40 67 -39 -245 0
41 66 40 246 0
41 66 40 -246 0
-41 -66 40 247 0
-41 -66 40 -247 0
41 -66 -40 248 0
41 -66 -40 -248 0
-41 66 -40 249 0
-41 66 -40 -249 0
42 65 41 250 0
42 65 41 -250 0
-42 -65 41 251 0
-42 -65 41 -251 0
42 -65 -41 252 0
42 -65 -41 -252 0
-42 65 -41 253 0
-42 65 -41 -253 0
43 64 42 254 0
43 64 42 -254 0
-43 -64 42 255 0
-43 -64 42 -255 0
43 -64 -42 256 0
43 -64 -42 -256 0
-43 64 -42 257 0
-43 64 -42 -257 0
44 63 43 258 0
44 63 43 -258 0
-44 -63 43 259 0
-44 -63 43 -259 0
44 -63 -43 260 0
44 -63 -43 -260 0
-44 63 -43 261 0
-44 63 -43 -261 0
45 62 44 262 0
45 62 44 -262 0
-45 -62 44 263 0
-45 -62 44 -263 0
45 -62 -44 264 0
45 -62 -44 -264 0
-45 62 -44 265 0
-45 62 -44 -265 0
46 61 45 266 0
46 61 45 -266 0
-46 -61 45 267 0
-46 -61 45 -267 0
46 -61 -45 268 0
46 -61 -45 -268 0
-46 61 -45 269 0
-46 61 -45 -269 0
47 60 46 270 0
47 60 46 -270 0
-47 -60 46 271 0
-47 -60 46 -271 0
47 -60 -46 272 0
47 -60 -46 -272 0
-47 60 -46 273 0
-47 60 -46 -273 0
48 59 47 274 0
48 59 47 -274 0
-48 -59 47 275 0
-48 -59 47 -275 0
48 -59 -47 276 0
48 -59 -47 -276 0
-48 59 -47 277 0
-48 59 -47 -277 0
49 58 48 278 0
49 58 48 -278 0
-49 -58 48 279 0
-49 -58 48 -279 0
49 -58 -48 280 0
49 -58 -48 -280 0
-49 58 -48 281 0
-49 58 -48 -281 0
50 57 49 282 0
50 57 49 -282 0
-50 -57 49 283 0
-50 -57 49 -283 0
50 -57 -49 284 0
50 -57 -49 -284 0
-50 57 -49 285 0
-50 57 -49 -285 0
51 56 50 286 0
51 56 50 -286 0
-51 -56 50 287 0
-51 -56 50 -287 0
51 -56 -50 288 0
51 -56 -50 -288 0
-51 56 -50 289 0
-51 56 -50 -289 0
52 55 51 290 0
52 55 51 -290 0
-52 -55 51 291 0
-52 -55 51 -291 0
52 -55 -51 292 0
52 -55 -51 -292 0
-52 55 -51 293 0
-52 55 -51 -293 0
53 54 -52 294 0
53 54 -52 -294 0
-53 -54 -52 295 0
-53 -54 -52 -295 0
53 -54 52 296 0
53 -54 52 -296 0
-53 54 52 297 0
-53 54 52 -297 0
